Gurobi 12.0.3:   lim:time = 14400

  mip:bestbound = 1

Set parameter LogToConsole to value 1

  tech:outlev = 1

Set parameter Cuts to value 3

  cut:cuts = 3

Set parameter Presolve to value 2

  pre:solve = 2

Set parameter MIPFocus to value 2

  mip:focus = 2

Set parameter Symmetry to value 2

  mip:symmetry = 2

Set parameter InfUnbdInfo to value 1

Gurobi Optimizer version 12.0.3 build v12.0.3rc0 (win64 - Windows 11.0 (26100.2))



CPU model: 12th Gen Intel(R) Core(TM) i7-12700, instruction set [SSE2|AVX|AVX2]

Thread count: 12 physical cores, 20 logical processors, using up to 20 threads



Non-default parameters:

TimeLimit  14400

MIPFocus  2

Symmetry  2

Cuts  3

InfUnbdInfo  1

Presolve  2



Optimize a model with 535 rows, 841 columns and 5052 nonzeros

Model fingerprint: 0x0cc760f9

Model has 1 quadratic objective term

Model has 6 quadratic constraints

Variable types: 35 continuous, 806 integer (0 binary)

Coefficient statistics:

  Matrix range     [1e+00, 1e+05]

  QMatrix range    [1e+00, 1e+00]

  QLMatrix range   [1e+00, 2e+01]

  Objective range  [9e+00, 1e+02]

  QObjective range [3e+00, 3e+00]

  Bounds range     [1e+00, 1e+02]

  RHS range        [1e+00, 1e+05]

  QRHS range       [1e+02, 1e+02]

Presolve removed 43 rows and 96 columns

Presolve time: 0.24s

Presolved: 872 rows, 1121 columns, 7098 nonzeros

Variable types: 18 continuous, 1103 integer (948 binary)

Found heuristic solution: objective 746.1500000

Root relaxation presolve removed 82 rows and 0 columns

Root relaxation presolved: 562 rows, 958 columns, 8154 nonzeros





Root relaxation: objective 2.238118e+02, 82 iterations, 0.01 seconds (0.01 work units)



    Nodes    |    Current Node    |     Objective Bounds      |     Work

 Expl Unexpl |  Obj  Depth IntInf | Incumbent    BestBd   Gap | It/Node Time



     0     0  223.81178    0   40  746.15000  223.81178  70.0%     -    0s

H    0     0                     609.5900000  243.87078  60.0%     -    0s

     0     0  251.55000    0   19  609.59000  251.55000  58.7%     -    0s

H    0     0                     488.4400000  257.00483  47.4%     -    0s

H    0     0                     435.3300000  257.00483  41.0%     -    0s

     0     0  257.00483    0   33  435.33000  257.00483  41.0%     -    0s

     0     0  259.08356    0   33  435.33000  259.08356  40.5%     -    0s

H    0     0                     432.9400000  268.80999  37.9%     -    0s

H    0     0                     431.9800000  268.80999  37.8%     -    0s

H    0     0                     413.7300000  268.80999  35.0%     -    0s

     0     0  268.80999    0   24  413.73000  268.80999  35.0%     -    0s

     0     0  269.95727    0   32  413.73000  269.95727  34.8%     -    0s

     0     0  269.95727    0   25  413.73000  269.95727  34.8%     -    0s

     0     0  269.95727    0   25  413.73000  269.95727  34.8%     -    0s

H    0     0                     399.9800000  272.67621  31.8%     -    0s

H    0     0                     384.1500000  272.67621  29.0%     -    0s

H    0     0                     383.8600000  272.67621  29.0%     -    0s

H    0     0                     382.7700000  272.67621  28.8%     -    0s

H    0     0                     344.1800000  272.67621  20.8%     -    0s

H    0     0                     343.0800000  272.67621  20.5%     -    0s

H    0     0                     327.2200000  283.98000  13.2%     -    0s

     0     0  283.98000    0   35  327.22000  283.98000  13.2%     -    1s

     0     0  286.67684    0   70  327.22000  286.67684  12.4%     -    1s

     0     0  295.76549    0   64  327.22000  295.76549  9.61%     -    1s

     0     0  296.05770    0   73  327.22000  296.05770  9.52%     -    1s

     0     0  303.03761    0   89  327.22000  303.03761  7.39%     -    1s

     0     0  303.03761    0   35  327.22000  303.03761  7.39%     -    1s

     0     0  303.03761    0   57  327.22000  303.03761  7.39%     -    1s

     0     0  303.03761    0   63  327.22000  303.03761  7.39%     -    1s

     0     0  303.03761    0   88  327.22000  303.03761  7.39%     -    1s

     0     0  303.03761    0   90  327.22000  303.03761  7.39%     -    1s

     0     0  303.03761    0   84  327.22000  303.03761  7.39%     -    1s

     0     0  303.03761    0   84  327.22000  303.03761  7.39%     -    1s

     0     2  303.03761    0   84  327.22000  303.03761  7.39%     -    1s



Cutting planes:

  Learned: 9

  Gomory: 13

  Lift-and-project: 2

  Cover: 2

  Implied bound: 10

  Projected implied bound: 1

  MIR: 15

  StrongCG: 9

  Flow cover: 77

  GUB cover: 1

  Zero half: 26

  RLT: 67

  Relax-and-lift: 2



Explored 932 nodes (17333 simplex iterations) in 2.14 seconds (1.75 work units)

Thread count was 20 (of 20 available processors)



Solution count 10: 327.22 343.08 344.18 ... 432.94



Optimal solution found (tolerance 1.00e-04)

Best objective 3.272200000000e+02, best bound 3.272200000000e+02, gap 0.0000%



AMPL MP initial flat model has 841 variables (0 integer, 806 binary);

Objectives: 1 quadratic; 

Constraints:  535 linear; 6 quadratic;



AMPL MP final model has 841 variables (0 integer, 806 binary);

Objectives: 1 quadratic; 

Constraints:  535 linear; 6 quadratic;





-----RESULTS INFO-----
running_time:  2.1879999999999997
TC.best_bound:  327.22
TC:  327.22
MIP Gap (%):  0
=== Vehicle Routes ===
Vehicle 1: 0 → 4
Vehicle 1: 1 → 2
Vehicle 1: 2 → 5
Vehicle 1: 3 → 1
Vehicle 1: 4 → 19
Vehicle 1: 5 → 22
Vehicle 1: 9 → 3
Vehicle 1: 19 → 9
Vehicle 2: 0 → 21
Vehicle 2: 21 → 22
Vehicle 3: 0 → 22
Vehicle 4: 0 → 22

=== Full Vehicle Routes ===
Vehicle 1: 0 → 4 → 19 → 9 → 3 → 1 → 2 → 5 → 0 (98<100)
Vehicle 2: 0 → 21 → 0 (66<100)
Vehicle 3: 0 → 0 (0<100)
Vehicle 4: 0 → 0 (0<100)
Arc used by MRT line: y variables:
Customer assigment to PL: u variables:
6 21
7 21
8 19
10 21
11 21
Node is served by regular vehicle: g variables:
1
2
3
4
5
9
19
21
Customer assigment to Home delivery: gm variables:
1
2
3
4
5
9
Node total demands: ntd variables:
1 14 1
2 8 1
3 4 1
4 8 1
5 18 1
9 22 1
10 0 0
11 0 0
18 0 0
19 24 1
20 0 0
21 66 1
12 0 0
13 0 0
14 0 0
15 0 0
16 0 0
17 0 0
Customer's demand delivered to PL: l variables:
6
7
8
10
11
Lockers load <= capacity:
0 <= 89
24 <= 94
0 <= 93
66 <= 78
0 <= 85
0 <= 90
0 <= 88
0 <= 76
0 <= 70
0 <= 86
